SiO2                                    
   4.99080000000000     
     0.5000000000000000   -0.8659999999999999    0.0000000000000000
     0.5000000000000000    0.8659999999999999    0.0000000000000000
     0.0000000000000000    0.0000000000000000    1.1016999999999999
   O    Si
   6   3
Direct
  0.4149999999999991  0.2719999999999985  0.1199999999999974
  0.8569999999999993  0.5850000000000009  0.4532999999999987
  0.7280000000000015  0.1430000000000007  0.7866000000000000
  0.1430000000000007  0.7280000000000015  0.8800000000000026
  0.2719999999999985  0.4149999999999991  0.5465999999999980
  0.5850000000000009  0.8569999999999993  0.2132999999999967
  0.5349999999999966  0.5349999999999966  0.3333000000000013
  0.4650000000000034  0.0000000000000000  0.0000000000000000
  0.0000000000000000  0.4650000000000034  0.6666000000000025
 
  0.00000000E+00  0.00000000E+00  0.00000000E+00
  0.00000000E+00  0.00000000E+00  0.00000000E+00
  0.00000000E+00  0.00000000E+00  0.00000000E+00
  0.00000000E+00  0.00000000E+00  0.00000000E+00
  0.00000000E+00  0.00000000E+00  0.00000000E+00
  0.00000000E+00  0.00000000E+00  0.00000000E+00
  0.00000000E+00  0.00000000E+00  0.00000000E+00
  0.00000000E+00  0.00000000E+00  0.00000000E+00
  0.00000000E+00  0.00000000E+00  0.00000000E+00
