SiO2
ISTART = 0
GGA=91
ENCUT =400
EDIFF  =1E-4
LREAL=.TRUE.
ICHARG=2
ISMEAR =0  
SIGMA  =   0.1
