SiO2
4.9908
0.5 -0.866 0.0
0.5 0.866 0.0
0.0 0.0 1.1017
6 3
Direct
0.4150 0.2720 0.1200 T T T
-0.1430 0.5850 0.4533 F F F
0.7280 0.1430 0.7866 F F F
0.1430 0.7280 0.880 F F F
0.2720 0.4150 0.5466 F F F
0.5850 -0.1430 0.2133 F F F
0.5350 0.5350 0.3333 F F F
0.4650 0.000 0.000  T F F 
0.000 0.4650 0.6666 F T F
