Cu: Test                                
   4.70000000000000     
     1.0000000000000000    0.0000000000000000    0.0000000000000000
     0.0000000000000000    1.0000000000000000    0.0000000000000000
     0.0000000000000000    0.0000000000000000    1.0000000000000000
   Cu
   8
Direct
  0.1905016106467775  0.9820731127357093  0.1121755323338098
  0.9136982225788197  0.3051002458949337  0.3480279096204518
  0.9238285187520151  0.3512754509777449  0.8236285906873765
  0.7014299059494326  0.9631486869753609  0.1132517793348618
  0.3985978492177380  0.3007040664361948  0.3508275690044957
  0.9064522248421029  0.9054652013389715  0.6194034758100200
  0.4087775504495901  0.8648873531224536  0.5513314603686972
  0.4195057805352987  0.2957534674358382  0.8343324293818852
 
 -0.90004062E-03 -0.16966523E-02 -0.64563464E-02
  0.68451392E-02 -0.28563171E-02 -0.42674253E-03
 -0.81390373E-02  0.11814186E-01  0.51141242E-02
 -0.23309237E-02 -0.63409899E-03  0.20572796E-02
  0.33930265E-02 -0.11023106E-02 -0.15172666E-02
  0.63836004E-02  0.20640534E-02 -0.26460875E-02
  0.26315676E-02 -0.20154614E-02  0.76360710E-03
 -0.81379363E-02 -0.54816351E-02  0.28789487E-02
 
           1
   1.50000000000000     
  0.10009216E+01  0.21572283E-03  0.79310613E-04  0.00000000E+00
  0.19021436E+00  0.98153163E+00  0.11011500E+00
  0.91588284E+00  0.30418866E+00  0.34789172E+00
  0.92123095E+00  0.35504594E+00  0.82526076E+00
  0.70068599E+00  0.96294631E+00  0.11390836E+00
  0.39968073E+00  0.30035227E+00  0.35034333E+00
  0.90848954E+00  0.90612394E+00  0.61855898E+00
  0.40961741E+00  0.86424412E+00  0.55157516E+00
  0.41690857E+00  0.29400401E+00  0.83525124E+00
 -0.25247275E-03 -0.37333744E-03 -0.20025198E-02
  0.22104218E-02 -0.10378473E-02 -0.13681495E-03
 -0.25953460E-02  0.36327933E-02  0.16139276E-02
 -0.71946051E-03 -0.75364354E-04  0.69164448E-03
  0.10437515E-02 -0.51448169E-03 -0.51960645E-03
  0.20339421E-02  0.74329961E-03 -0.88858443E-03
  0.83588625E-03 -0.53555435E-03  0.23462199E-03
 -0.26260446E-02 -0.18141890E-02  0.94033148E-03
  0.00000000E+00  0.00000000E+00  0.00000000E+00
  0.00000000E+00  0.00000000E+00  0.00000000E+00
  0.00000000E+00  0.00000000E+00  0.00000000E+00
  0.00000000E+00  0.00000000E+00  0.00000000E+00
  0.00000000E+00  0.00000000E+00  0.00000000E+00
  0.00000000E+00  0.00000000E+00  0.00000000E+00
  0.00000000E+00  0.00000000E+00  0.00000000E+00
  0.00000000E+00  0.00000000E+00  0.00000000E+00
