Cu: Test                                 
   4.700000 
 1.0 0.0 0.0
 0.0 1.0 0.0
 0.0 0.0 1.0
           8 
Direct
       .19098171       .98094506       .11921653
       .90441571       .31124656       .34852411
       .93426429       .33890980       .81752238
       .70388724       .96143276       .10990819
       .39497669       .30537621       .35345206
       .89841071       .90110980       .62360372
       .40549245       .86532668       .55056467
       .43048502       .30400900       .83033793

   .91026088E-04   .33055980E-02  -.45528097E-02
   .77411581E-02  -.67014441E-02  -.24206981E-03
  -.83557965E-02   .76307746E-02   .43593325E-02
  -.14826142E-02   .32706104E-02   .31888450E-02
   .24242191E-02  -.61706008E-02  -.25296910E-02
   .61529702E-02   .47856490E-02  -.38310073E-02
   .25213317E-02   .12680151E-02   .40194738E-03
  -.90922944E-02  -.73886022E-02   .32054530E-02
